Route #1: 24 50 51 13 25 22 14 15 4 35 12 53 26
Route #2: 28 47 37 20 17 16 43 46 38 31
Route #3: 48 5 18 8 23 29 9 45 52 36
Route #4: 
Route #5: 19 30 3 11 41 27
Route #6: 40 6 10 42 49 44 33 2 1
Route #7: 32 7 21 39 34
cost 1595.3270071616328
